NAME : prob20e.6465.tour
COMMENT : Cost = 0_6465
COMMENT : Found by LKH [Keld Helsgaun] Sun Sep 17 01:05:34 2017
TYPE : TOUR
DIMENSION : 41
TOUR_SECTION
1
34
35
29
22
23
36
28
26
27
33
16
40
8
7
9
39
38
20
32
31
13
25
41
2
30
11
19
12
15
37
3
5
10
21
24
17
14
6
4
18
-1
EOF
